
===== New CPLEX run =====
Instance: /home/yorig/tuner/mpils-tests/instances/miplib/easy/lotsize.mps
Config: /scratch/yorig/mpils-results-grid-ticks-10000/easy/16proc/seed-9/4_lotsize_seed-9_20260425_202405/iterated_local_search/run_2_worker_11/ils_config_11880345821385272529.prm
========================

Selected objective sense:  MINIMIZE
Selected objective  name:  R1921
Selected RHS        name:  B
Selected bound      name:  BOUND
Version identifier: 22.1.2.0 | 2024-11-26 | 0edbb82fd
CPXPARAM_Threads                                 8
CPXPARAM_Parallel                                1
CPXPARAM_MIP_Cuts_Cliques                        -1
CPXPARAM_MIP_Strategy_VariableSelect             -1
CPXPARAM_MIP_Cuts_FlowCovers                     2
CPXPARAM_MIP_Cuts_Implied                        -1
CPXPARAM_MIP_Cuts_GUBCovers                      1
CPXPARAM_MIP_Limits_GomoryCand                   25
CPXPARAM_MIP_Cuts_PathCut                        -1
CPXPARAM_MIP_Cuts_MIRCut                         -1
CPXPARAM_MIP_Cuts_Disjunctive                    2
CPXPARAM_Emphasis_MIP                            2
CPXPARAM_DetTimeLimit                            10000
Tried aggregator 1 time.
MIP Presolve eliminated 595 rows and 0 columns.
MIP Presolve added 1190 rows and 0 columns.
MIP Presolve modified 10 coefficients.
Reduced MIP has 2515 rows, 2985 columns, and 7755 nonzeros.
Reduced MIP has 1195 binaries, 0 generals, 0 SOSs, and 0 indicators.
Presolve time = 0.00 sec. (4.53 ticks)
Probing fixed 0 vars, tightened 5487 bounds.
Probing time = 0.01 sec. (18.38 ticks)
Tried aggregator 2 times.
Detecting symmetries...
MIP Presolve modified 1206 coefficients.
Aggregator did 10 substitutions.
Reduced MIP has 2505 rows, 2975 columns, and 7735 nonzeros.
Reduced MIP has 1195 binaries, 0 generals, 0 SOSs, and 0 indicators.
Presolve time = 0.00 sec. (6.66 ticks)
Probing fixed 0 vars, tightened 2401 bounds.
Probing time = 0.00 sec. (6.41 ticks)
Clique table members: 190.
MIP emphasis: optimality.
MIP search method: dynamic search.
Parallel mode: deterministic, using up to 8 threads.
Root relaxation solution time = 0.01 sec. (9.71 ticks)

        Nodes                                         Cuts/
   Node  Left     Objective  IInf  Best Integer    Best Bound    ItCnt     Gap

      0     0   348385.3466   472                 348385.3466      882         
      0     0   580720.5063   453                   Cuts: 726     1872         
      0     0   834451.2935   584                   Cuts: 726     2659         
      0     0   930888.1416   616                   Cuts: 692     3207         
*     0+    0                       1.01740e+07   930888.1416            90.85%
*     0+    0                      7973370.0000   930888.1416            88.33%
      0     0   999654.3508   655  7973370.0000     Cuts: 610     3775   87.46%
      0     0  1048265.1565   651  7973370.0000     Cuts: 416     4245   86.85%
Detecting symmetries...
      0     0  1076296.7393   669  7973370.0000     Cuts: 413     4634   86.50%
      0     0  1098056.8910   686  7973370.0000     Cuts: 292     4996   86.23%
      0     0  1111521.2323   712  7973370.0000     Cuts: 352     5314   86.06%
      0     0  1122319.6635   713  7973370.0000     Cuts: 241     5639   85.92%
      0     0  1129242.2934   733  7973370.0000     Cuts: 206     5880   85.84%
      0     0  1135955.1614   749  7973370.0000     Cuts: 204     6154   85.75%
      0     0  1143002.3188   745  7973370.0000     Cuts: 200     6387   85.66%
      0     0  1146946.1171   769  7973370.0000     Cuts: 166     6615   85.62%
      0     0  1150531.3989   770  7973370.0000     Cuts: 184     6833   85.57%
      0     0  1153216.7106   732  7973370.0000     Cuts: 123     6977   85.54%
      0     0  1155727.0833   746  7973370.0000     Cuts: 131     7114   85.51%
      0     0  1157830.9060   783  7973370.0000     Cuts: 103     7265   85.48%
      0     0  1159862.6750   795  7973370.0000      Cuts: 96     7426   85.45%
      0     0  1161999.2045   772  7973370.0000      Cuts: 90     7552   85.43%
      0     0  1163338.9983   775  7973370.0000      Cuts: 94     7657   85.41%
      0     0  1164972.6935   783  7973370.0000      Cuts: 98     7817   85.39%
      0     0  1165903.2893   798  7973370.0000      Cuts: 68     7926   85.38%
      0     0  1166625.8977   793  7973370.0000      Cuts: 83     8053   85.37%
      0     0  1167348.0069   795  7973370.0000      Cuts: 74     8144   85.36%
      0     0  1167943.3420   799  7973370.0000      Cuts: 62     8239   85.35%
      0     0  1168542.5841   807  7973370.0000      Cuts: 68     8301   85.34%
      0     0  1168780.6752   803  7973370.0000      Cuts: 52     8360   85.34%
      0     0  1169121.2365   790  7973370.0000      Cuts: 29     8429   85.34%
      0     0  1169424.5584   797  7973370.0000      Cuts: 48     8466   85.33%
Detecting symmetries...
      0     2  1169424.5584   797  7973370.0000  1169424.5584     8466   85.33%
Elapsed time = 3.30 sec. (5396.03 ticks, tree = 0.02 MB, solutions = 2)
*    21+    1                      3524775.0000  1169599.9685            66.82%
     22    18  1221746.7231   768  3524775.0000  1169599.9685     9229   66.82%
     49    48  1228095.4113   723  3524775.0000  1170095.7098    12390   66.80%
     87    85  1243822.1927   754  3524775.0000  1170095.7098    16727   66.80%
    204   150  1292734.6384   652  3524775.0000  1170095.7098    20356   66.80%
    487   336  1285004.7138   681  3524775.0000  1170095.7098    27768   66.80%
    612   547  1323206.3509   640  3524775.0000  1170095.7098    33554   66.80%
    761   645  1334897.3242   623  3524775.0000  1170095.7098    35869   66.80%
   1064   914  1313942.1031   595  3524775.0000  1170095.7098    42902   66.80%
   1346  1123  1366863.0734   496  3524775.0000  1170095.7098    47583   66.80%

Performing restart 1

Repeating presolve.
Tried aggregator 1 time.
MIP Presolve modified 1206 coefficients.
Reduced MIP has 2505 rows, 2975 columns, and 7735 nonzeros.
Reduced MIP has 1195 binaries, 0 generals, 0 SOSs, and 0 indicators.
Presolve time = 0.00 sec. (3.78 ticks)
Tried aggregator 1 time.
MIP Presolve modified 1081 coefficients.
Reduced MIP has 2505 rows, 2975 columns, and 7735 nonzeros.
Reduced MIP has 1195 binaries, 0 generals, 0 SOSs, and 0 indicators.
Presolve time = 0.00 sec. (5.12 ticks)
Represolve time = 0.02 sec. (23.26 ticks)
*  1864+    0                      2943413.0000  1173336.9057            60.14%
   1864     0  1230078.9344   809  2943413.0000     Cuts: 726    68519   58.21%

GUB cover cuts applied:  0
Cover cuts applied:  15
Flow cuts applied:  907
Mixed integer rounding cuts applied:  481
Multi commodity flow cuts applied:  40
Gomory fractional cuts applied:  3
Disjunctive cuts applied:  0
Cone linearizations applied:  0

Root node processing (before b&c):
  Real time             =    3.29 sec. (5388.43 ticks)
Parallel b&c, 8 threads:
  Real time             =    3.05 sec. (4613.54 ticks)
  Sync time (average)   =    0.16 sec.
  Wait time (average)   =    0.00 sec.
                          ------------
Total (root+branch&cut) =    6.34 sec. (10001.96 ticks)
Gap: 58.21%
Upper bound: 2.94341e+06
Lower bound: 1.23008e+06
End of CPLEX run. Time: 6.34047 seconds

===== New CPLEX run =====
Instance: /home/yorig/tuner/mpils-tests/instances/miplib/easy/lotsize.mps
Config: /scratch/yorig/mpils-results-grid-ticks-10000/easy/16proc/seed-9/4_lotsize_seed-9_20260425_202405/iterated_local_search/run_2_worker_11/ils_config_14893483348134656320.prm
========================

Selected objective sense:  MINIMIZE
Selected objective  name:  R1921
Selected RHS        name:  B
Selected bound      name:  BOUND
Version identifier: 22.1.2.0 | 2024-11-26 | 0edbb82fd
CPXPARAM_Threads                                 8
CPXPARAM_Parallel                                1
CPXPARAM_MIP_Cuts_Cliques                        -1
CPXPARAM_MIP_Strategy_VariableSelect             -1
CPXPARAM_MIP_Cuts_FlowCovers                     2
CPXPARAM_MIP_Cuts_Implied                        2
CPXPARAM_MIP_Cuts_GUBCovers                      1
CPXPARAM_MIP_Limits_GomoryCand                   25
CPXPARAM_MIP_Cuts_PathCut                        -1
CPXPARAM_MIP_Cuts_MIRCut                         -1
CPXPARAM_MIP_Cuts_Disjunctive                    2
CPXPARAM_Emphasis_MIP                            2
CPXPARAM_DetTimeLimit                            10000
Tried aggregator 1 time.
MIP Presolve eliminated 595 rows and 0 columns.
MIP Presolve added 1190 rows and 0 columns.
MIP Presolve modified 10 coefficients.
Reduced MIP has 2515 rows, 2985 columns, and 7755 nonzeros.
Reduced MIP has 1195 binaries, 0 generals, 0 SOSs, and 0 indicators.
Presolve time = 0.00 sec. (4.53 ticks)
Probing fixed 0 vars, tightened 5487 bounds.
Probing time = 0.01 sec. (18.38 ticks)
Tried aggregator 2 times.
Detecting symmetries...
MIP Presolve modified 1206 coefficients.
Aggregator did 10 substitutions.
Reduced MIP has 2505 rows, 2975 columns, and 7735 nonzeros.
Reduced MIP has 1195 binaries, 0 generals, 0 SOSs, and 0 indicators.
Presolve time = 0.01 sec. (6.66 ticks)
Probing fixed 0 vars, tightened 2401 bounds.
Probing time = 0.00 sec. (6.41 ticks)
Clique table members: 190.
MIP emphasis: optimality.
MIP search method: dynamic search.
Parallel mode: deterministic, using up to 8 threads.
Root relaxation solution time = 0.01 sec. (9.71 ticks)

        Nodes                                         Cuts/
   Node  Left     Objective  IInf  Best Integer    Best Bound    ItCnt     Gap

      0     0   348385.3466   472                 348385.3466      882         
      0     0   578202.0337   454                   Cuts: 726     1865         
      0     0   833704.4829   575                   Cuts: 726     2650         
      0     0   933854.1173   602                   Cuts: 676     3185         
*     0+    0                       1.01740e+07   933854.1173            90.82%
*     0+    0                      7973370.0000   933854.1173            88.29%
      0     0  1006412.7089   657  7973370.0000     Cuts: 622     3770   87.38%
      0     0  1051355.7631   669  7973370.0000     Cuts: 476     4265   86.81%
Detecting symmetries...
      0     0  1078759.3899   666  7973370.0000     Cuts: 348     4655   86.47%
      0     0  1100658.2435   651  7973370.0000     Cuts: 296     4978   86.20%
      0     0  1113000.2126   668  7973370.0000     Cuts: 280     5271   86.04%
      0     0  1123471.8599   710  7973370.0000     Cuts: 213     5558   85.91%
      0     0  1131896.8635   724  7973370.0000     Cuts: 251     5813   85.80%
      0     0  1138073.5001   745  7973370.0000     Cuts: 223     6073   85.73%
      0     0  1143141.2261   774  7973370.0000     Cuts: 173     6267   85.66%
      0     0  1147977.3574   748  7973370.0000     Cuts: 208     6501   85.60%
      0     0  1149747.3956   774  7973370.0000      Cuts: 94     6632   85.58%
      0     0  1151563.1624   780  7973370.0000     Cuts: 134     6774   85.56%
      0     0  1153254.3923   792  7973370.0000      Cuts: 94     6913   85.54%
      0     0  1155206.2408   794  7973370.0000     Cuts: 120     7064   85.51%
      0     0  1157144.8228   784  7973370.0000      Cuts: 96     7189   85.49%
      0     0  1158478.1094   795  7973370.0000     Cuts: 107     7336   85.47%
      0     0  1160184.2281   780  7973370.0000      Cuts: 98     7501   85.45%
      0     0  1160821.6026   802  7973370.0000      Cuts: 77     7584   85.44%
      0     0  1161423.8595   797  7973370.0000      Cuts: 51     7681   85.43%
      0     0  1162120.5992   801  7973370.0000      Cuts: 52     7781   85.42%
      0     0  1162770.5192   812  7973370.0000      Cuts: 88     7877   85.42%
      0     0  1163008.6022   811  7973370.0000      Cuts: 34     7930   85.41%
      0     0  1163807.5956   801  7973370.0000      Cuts: 17     7978   85.40%
      0     0  1164372.2697   799  7973370.0000      Cuts: 37     8018   85.40%
      0     0  1164706.0913   804  7973370.0000      Cuts: 54     8075   85.39%
      0     0  1165156.3936   798  7973370.0000      Cuts: 58     8144   85.39%
      0     0  1165464.2981   806  7973370.0000      Cuts: 60     8211   85.38%
Detecting symmetries...
      0     2  1165464.2981   806  7973370.0000  1165464.2981     8211   85.38%
Elapsed time = 3.35 sec. (5590.00 ticks, tree = 0.02 MB, solutions = 2)
     30    17  1189078.2241   767  7973370.0000  1167945.0678     9149   85.35%
     83    77  1241495.8921   713  7973370.0000  1167945.0678    12285   85.35%
    155   127  1199567.1106   693  7973370.0000  1167945.0678    15985   85.35%
    249   195  1175297.8076   741  7973370.0000  1167945.0678    20215   85.35%
    354   282  1205142.1900   696  7973370.0000  1167945.0678    24677   85.35%
    504   454  1209769.9780   659  7973370.0000  1167945.0678    31665   85.35%
    613   524  1217610.3978   696  7973370.0000  1167945.0678    35187   85.35%
    768   630  1247805.7480   669  7973370.0000  1167945.0678    39066   85.35%
    900   761  1303541.1182   548  7973370.0000  1167945.0678    42922   85.35%

Performing restart 1

Repeating presolve.
Tried aggregator 1 time.
MIP Presolve modified 1189 coefficients.
Reduced MIP has 2505 rows, 2975 columns, and 7735 nonzeros.
Reduced MIP has 1195 binaries, 0 generals, 0 SOSs, and 0 indicators.
Presolve time = 0.00 sec. (3.78 ticks)
Tried aggregator 1 time.
MIP Presolve modified 1049 coefficients.
Reduced MIP has 2505 rows, 2975 columns, and 7735 nonzeros.
Reduced MIP has 1195 binaries, 0 generals, 0 SOSs, and 0 indicators.
Presolve time = 0.00 sec. (5.11 ticks)
Represolve time = 0.02 sec. (22.94 ticks)

GUB cover cuts applied:  0
Cover cuts applied:  12
Implied bound cuts applied:  20
Flow cuts applied:  973
Mixed integer rounding cuts applied:  519
Multi commodity flow cuts applied:  72
Gomory fractional cuts applied:  1
Disjunctive cuts applied:  0
Cone linearizations applied:  0

Root node processing (before b&c):
  Real time             =    3.34 sec. (5582.38 ticks)
Parallel b&c, 8 threads:
  Real time             =    2.75 sec. (4418.39 ticks)
  Sync time (average)   =    0.21 sec.
  Wait time (average)   =    0.00 sec.
                          ------------
Total (root+branch&cut) =    6.09 sec. (10000.77 ticks)
Gap: 85.32%
Upper bound: 7.97337e+06
Lower bound: 1.17035e+06
End of CPLEX run. Time: 6.08989 seconds

===== New CPLEX run =====
Instance: /home/yorig/tuner/mpils-tests/instances/miplib/easy/lotsize.mps
Config: /scratch/yorig/mpils-results-grid-ticks-10000/easy/16proc/seed-9/4_lotsize_seed-9_20260425_202405/iterated_local_search/run_2_worker_11/ils_config_11038887909279477256.prm
========================

Selected objective sense:  MINIMIZE
Selected objective  name:  R1921
Selected RHS        name:  B
Selected bound      name:  BOUND
Version identifier: 22.1.2.0 | 2024-11-26 | 0edbb82fd
CPXPARAM_Threads                                 8
CPXPARAM_Parallel                                1
CPXPARAM_MIP_Cuts_Cliques                        -1
CPXPARAM_MIP_Strategy_VariableSelect             -1
CPXPARAM_MIP_Cuts_FlowCovers                     2
CPXPARAM_MIP_Cuts_Implied                        -1
CPXPARAM_MIP_Cuts_GUBCovers                      1
CPXPARAM_MIP_Limits_GomoryCand                   25
CPXPARAM_MIP_Cuts_PathCut                        2
CPXPARAM_MIP_Cuts_MIRCut                         -1
CPXPARAM_MIP_Cuts_Disjunctive                    2
CPXPARAM_Emphasis_MIP                            2
CPXPARAM_DetTimeLimit                            10000
Tried aggregator 1 time.
MIP Presolve eliminated 595 rows and 0 columns.
MIP Presolve added 1190 rows and 0 columns.
MIP Presolve modified 10 coefficients.
Reduced MIP has 2515 rows, 2985 columns, and 7755 nonzeros.
Reduced MIP has 1195 binaries, 0 generals, 0 SOSs, and 0 indicators.
Presolve time = 0.00 sec. (4.53 ticks)
Probing fixed 0 vars, tightened 5487 bounds.
Probing time = 0.01 sec. (18.38 ticks)
Tried aggregator 2 times.
Detecting symmetries...
MIP Presolve modified 1206 coefficients.
Aggregator did 10 substitutions.
Reduced MIP has 2505 rows, 2975 columns, and 7735 nonzeros.
Reduced MIP has 1195 binaries, 0 generals, 0 SOSs, and 0 indicators.
Presolve time = 0.00 sec. (6.66 ticks)
Probing fixed 0 vars, tightened 2401 bounds.
Probing time = 0.00 sec. (6.41 ticks)
Clique table members: 190.
MIP emphasis: optimality.
MIP search method: dynamic search.
Parallel mode: deterministic, using up to 8 threads.
Root relaxation solution time = 0.01 sec. (9.71 ticks)

        Nodes                                         Cuts/
   Node  Left     Objective  IInf  Best Integer    Best Bound    ItCnt     Gap

      0     0   348385.3466   472                 348385.3466      882         
      0     0   580720.5063   453                   Cuts: 726     1872         
      0     0   819575.4990   708                   Cuts: 726     2785         
*     0+    0                       1.01740e+07   819575.4990            91.94%
*     0+    0                      7973370.0000   819575.4990            89.72%
      0     0   939438.7408   691  7973370.0000     Cuts: 726     3478   88.22%
      0     0  1009835.2082   757  7973370.0000     Cuts: 620     4088   87.33%
      0     0  1056132.6352   796  7973370.0000     Cuts: 552     4621   86.75%
Detecting symmetries...
      0     0  1087387.7963   799  7973370.0000     Cuts: 432     5019   86.36%
      0     0  1109698.8233   825  7973370.0000     Cuts: 371     5393   86.08%
      0     0  1124322.7559   830  7973370.0000     Cuts: 338     5726   85.90%
      0     0  1134133.8394   849  7973370.0000     Cuts: 332     6024   85.78%
      0     0  1141232.1307   864  7973370.0000     Cuts: 232     6272   85.69%
      0     0  1146614.6559   854  7973370.0000     Cuts: 241     6496   85.62%
      0     0  1150433.9394   859  7973370.0000     Cuts: 149     6706   85.57%
      0     0  1153363.0032   850  7973370.0000     Cuts: 154     6909   85.53%
      0     0  1157123.0137   870  7973370.0000     Cuts: 150     7140   85.49%
      0     0  1160032.1810   858  7973370.0000     Cuts: 166     7313   85.45%
      0     0  1161957.5329   860  7973370.0000     Cuts: 143     7497   85.43%
      0     0  1164445.6116   861  7973370.0000     Cuts: 101     7660   85.40%
      0     0  1165832.8907   865  7973370.0000     Cuts: 122     7802   85.38%
      0     0  1166350.1905   866  7973370.0000      Cuts: 80     7898   85.37%
      0     0  1167466.7469   881  7973370.0000      Cuts: 81     8033   85.36%
      0     0  1168878.2143   885  7973370.0000      Cuts: 95     8199   85.34%
      0     0  1169506.2871   889  7973370.0000      Cuts: 47     8285   85.33%
      0     0  1170238.0809   864  7973370.0000      Cuts: 57     8373   85.32%
      0     0  1170637.0213   882  7973370.0000      Cuts: 81     8457   85.32%
      0     0  1171042.9371   870  7973370.0000      Cuts: 75     8557   85.31%
      0     0  1171376.7599   876  7973370.0000      Cuts: 36     8634   85.31%
      0     0  1171615.7045   883  7973370.0000      Cuts: 66     8714   85.31%
      0     0  1171856.2810   875  7973370.0000      Cuts: 38     8784   85.30%
Detecting symmetries...
      0     2  1171856.2810   875  7973370.0000  1171856.2810     8784   85.30%
Elapsed time = 3.47 sec. (5786.36 ticks, tree = 0.02 MB, solutions = 2)
     36     8  1184821.5516   858  7973370.0000  1173204.0362     9176   85.29%
    109    96  1177762.3665   854  7973370.0000  1173237.3820    14346   85.29%
    151   124  1250424.8870   809  7973370.0000  1173237.3820    16376   85.29%
    220   195  1242890.1678   815  7973370.0000  1173237.3820    20243   85.29%
    373   284  1235131.8063   781  7973370.0000  1173237.3820    24572   85.29%
    518   421  1244100.4511   716  7973370.0000  1173237.3820    31605   85.29%
    568   506  1255234.5933   683  7973370.0000  1173237.3820    34791   85.29%
    632   575  1258310.2595   687  7973370.0000  1173237.3820    37102   85.29%
    745   665  1282227.0733   619  7973370.0000  1173237.3820    40627   85.29%
*  1107+  895                      1744789.0000  1173237.3820            32.76%
   1459  1252  1342325.8399   511  1744789.0000  1173237.3820    60159   32.76%
Elapsed time = 5.70 sec. (8968.71 ticks, tree = 1.84 MB, solutions = 3)

Performing restart 1

Repeating presolve.
Tried aggregator 1 time.
MIP Presolve modified 1196 coefficients.
Reduced MIP has 2505 rows, 2975 columns, and 7735 nonzeros.
Reduced MIP has 1195 binaries, 0 generals, 0 SOSs, and 0 indicators.
Presolve time = 0.00 sec. (3.78 ticks)
Tried aggregator 1 time.
MIP Presolve modified 1066 coefficients.
Reduced MIP has 2505 rows, 2975 columns, and 7735 nonzeros.
Reduced MIP has 1195 binaries, 0 generals, 0 SOSs, and 0 indicators.
Presolve time = 0.00 sec. (5.12 ticks)
Represolve time = 0.02 sec. (23.99 ticks)

GUB cover cuts applied:  0
Cover cuts applied:  10
Flow cuts applied:  868
Mixed integer rounding cuts applied:  549
Flow path cuts applied:  77
Multi commodity flow cuts applied:  65
Gomory fractional cuts applied:  3
Disjunctive cuts applied:  0
Cone linearizations applied:  0

Root node processing (before b&c):
  Real time             =    3.46 sec. (5778.72 ticks)
Parallel b&c, 8 threads:
  Real time             =    2.90 sec. (4221.79 ticks)
  Sync time (average)   =    0.52 sec.
  Wait time (average)   =    0.00 sec.
                          ------------
Total (root+branch&cut) =    6.36 sec. (10000.51 ticks)
Gap: 32.76%
Upper bound: 1.74479e+06
Lower bound: 1.17324e+06
End of CPLEX run. Time: 6.36495 seconds

===== New CPLEX run =====
Instance: /home/yorig/tuner/mpils-tests/instances/miplib/easy/lotsize.mps
Config: /scratch/yorig/mpils-results-grid-ticks-10000/easy/16proc/seed-9/4_lotsize_seed-9_20260425_202405/iterated_local_search/run_2_worker_11/ils_config_12060435589022074176.prm
========================

Selected objective sense:  MINIMIZE
Selected objective  name:  R1921
Selected RHS        name:  B
Selected bound      name:  BOUND
Version identifier: 22.1.2.0 | 2024-11-26 | 0edbb82fd
CPXPARAM_Threads                                 8
CPXPARAM_Parallel                                1
CPXPARAM_MIP_Cuts_Cliques                        -1
CPXPARAM_MIP_Strategy_VariableSelect             2
CPXPARAM_MIP_Cuts_FlowCovers                     2
CPXPARAM_MIP_Cuts_Implied                        -1
CPXPARAM_MIP_Cuts_GUBCovers                      1
CPXPARAM_MIP_Limits_GomoryCand                   25
CPXPARAM_MIP_Cuts_PathCut                        2
CPXPARAM_MIP_Cuts_MIRCut                         -1
CPXPARAM_MIP_Cuts_Disjunctive                    2
CPXPARAM_Emphasis_MIP                            2
CPXPARAM_DetTimeLimit                            10000
Tried aggregator 1 time.
MIP Presolve eliminated 595 rows and 0 columns.
MIP Presolve added 1190 rows and 0 columns.
MIP Presolve modified 10 coefficients.
Reduced MIP has 2515 rows, 2985 columns, and 7755 nonzeros.
Reduced MIP has 1195 binaries, 0 generals, 0 SOSs, and 0 indicators.
Presolve time = 0.00 sec. (4.53 ticks)
Probing fixed 0 vars, tightened 5487 bounds.
Probing time = 0.01 sec. (18.38 ticks)
Tried aggregator 2 times.
Detecting symmetries...
MIP Presolve modified 1206 coefficients.
Aggregator did 10 substitutions.
Reduced MIP has 2505 rows, 2975 columns, and 7735 nonzeros.
Reduced MIP has 1195 binaries, 0 generals, 0 SOSs, and 0 indicators.
Presolve time = 0.00 sec. (6.66 ticks)
Probing fixed 0 vars, tightened 2401 bounds.
Probing time = 0.00 sec. (6.41 ticks)
Clique table members: 190.
MIP emphasis: optimality.
MIP search method: dynamic search.
Parallel mode: deterministic, using up to 8 threads.
Root relaxation solution time = 0.01 sec. (9.71 ticks)

        Nodes                                         Cuts/
   Node  Left     Objective  IInf  Best Integer    Best Bound    ItCnt     Gap

      0     0   348385.3466   472                 348385.3466      882         
      0     0   580720.5063   453                   Cuts: 726     1872         
      0     0   819575.4990   708                   Cuts: 726     2785         
*     0+    0                       1.01740e+07   819575.4990            91.94%
*     0+    0                      7973370.0000   819575.4990            89.72%
      0     0   939438.7408   691  7973370.0000     Cuts: 726     3478   88.22%
      0     0  1009835.2082   757  7973370.0000     Cuts: 620     4088   87.33%
      0     0  1056132.6352   796  7973370.0000     Cuts: 552     4621   86.75%
Detecting symmetries...
      0     0  1087387.7963   799  7973370.0000     Cuts: 432     5019   86.36%
      0     0  1109698.8233   825  7973370.0000     Cuts: 371     5393   86.08%
      0     0  1124322.7559   830  7973370.0000     Cuts: 338     5726   85.90%
*     0+    0                      2869313.0000  1124322.7559            60.82%
      0     0  1134133.8394   849  2869313.0000     Cuts: 332     6024   60.47%
      0     0  1141519.1950   856  2869313.0000     Cuts: 258     6313   60.22%
      0     0  1147196.0287   854  2869313.0000     Cuts: 230     6560   60.02%
      0     0  1151042.2822   854  2869313.0000     Cuts: 160     6760   59.88%
      0     0  1153688.3542   865  2869313.0000     Cuts: 119     6937   59.79%
      0     0  1156959.9756   872  2869313.0000     Cuts: 134     7133   59.68%
      0     0  1159962.1727   855  2869313.0000     Cuts: 172     7405   59.57%
      0     0  1161726.9619   868  2869313.0000     Cuts: 121     7555   59.51%
      0     0  1163488.7691   878  2869313.0000      Cuts: 96     7725   59.45%
      0     0  1164491.4383   877  2869313.0000     Cuts: 119     7855   59.42%
      0     0  1165608.5682   868  2869313.0000      Cuts: 83     7991   59.38%
      0     0  1166450.3312   899  2869313.0000     Cuts: 127     8133   59.35%
      0     0  1167482.5891   892  2869313.0000     Cuts: 110     8252   59.31%
      0     0  1168598.9198   900  2869313.0000      Cuts: 89     8394   59.27%
      0     0  1169702.0326   886  2869313.0000      Cuts: 78     8520   59.23%
      0     0  1170344.4040   889  2869313.0000      Cuts: 68     8624   59.21%
      0     0  1170873.7184   878  2869313.0000      Cuts: 91     8734   59.19%
      0     0  1171441.8693   876  2869313.0000      Cuts: 63     8844   59.17%
      0     0  1171843.1908   871  2869313.0000      Cuts: 52     8942   59.16%
      0     0  1172261.5393   870  2869313.0000      Cuts: 86     9039   59.14%
      0     0  1172844.3454   870  2869313.0000      Cuts: 46     9142   59.12%
      0     0  1173290.5532   888  2869313.0000      Cuts: 65     9231   59.11%
      0     0  1173510.3021   895  2869313.0000      Cuts: 78     9315   59.10%
      0     0  1173676.8402   890  2869313.0000      Cuts: 50     9387   59.10%
*     0+    0                      2638205.0000  1173676.8402            55.51%
Detecting symmetries...
      0     2  1173676.8402   890  2638205.0000  1173676.8402     9387   55.51%
Elapsed time = 3.81 sec. (6622.51 ticks, tree = 0.02 MB, solutions = 4)
      1     3  1175935.7898   862  2638205.0000  1173677.9156     9706   55.51%

GUB cover cuts applied:  0
Cover cuts applied:  10
Flow cuts applied:  866
Mixed integer rounding cuts applied:  540
Flow path cuts applied:  71
Multi commodity flow cuts applied:  83
Gomory fractional cuts applied:  3
Disjunctive cuts applied:  0
Cone linearizations applied:  0

Root node processing (before b&c):
  Real time             =    3.79 sec. (6614.55 ticks)
Parallel b&c, 8 threads:
  Real time             =    1.69 sec. (3390.91 ticks)
  Sync time (average)   =    1.24 sec.
  Wait time (average)   =    0.00 sec.
                          ------------
Total (root+branch&cut) =    5.49 sec. (10005.46 ticks)
Gap: 55.51%
Upper bound: 2.6382e+06
Lower bound: 1.17368e+06
End of CPLEX run. Time: 5.48649 seconds

===== New CPLEX run =====
Instance: /home/yorig/tuner/mpils-tests/instances/miplib/easy/lotsize.mps
Config: /scratch/yorig/mpils-results-grid-ticks-10000/easy/16proc/seed-9/4_lotsize_seed-9_20260425_202405/iterated_local_search/run_2_worker_11/ils_config_4255635886253956036.prm
========================

Selected objective sense:  MINIMIZE
Selected objective  name:  R1921
Selected RHS        name:  B
Selected bound      name:  BOUND
Version identifier: 22.1.2.0 | 2024-11-26 | 0edbb82fd
CPXPARAM_Threads                                 8
CPXPARAM_Parallel                                1
CPXPARAM_MIP_Cuts_Cliques                        -1
CPXPARAM_MIP_Cuts_FlowCovers                     2
CPXPARAM_MIP_Cuts_Implied                        -1
CPXPARAM_MIP_Cuts_GUBCovers                      1
CPXPARAM_MIP_Limits_GomoryCand                   25
CPXPARAM_MIP_Cuts_PathCut                        2
CPXPARAM_MIP_Cuts_MIRCut                         -1
CPXPARAM_MIP_Cuts_Disjunctive                    2
CPXPARAM_Emphasis_MIP                            2
CPXPARAM_DetTimeLimit                            10000
Tried aggregator 1 time.
MIP Presolve eliminated 595 rows and 0 columns.
MIP Presolve added 1190 rows and 0 columns.
MIP Presolve modified 10 coefficients.
Reduced MIP has 2515 rows, 2985 columns, and 7755 nonzeros.
Reduced MIP has 1195 binaries, 0 generals, 0 SOSs, and 0 indicators.
Presolve time = 0.00 sec. (4.53 ticks)
Probing fixed 0 vars, tightened 5487 bounds.
Probing time = 0.01 sec. (18.38 ticks)
Tried aggregator 2 times.
Detecting symmetries...
MIP Presolve modified 1206 coefficients.
Aggregator did 10 substitutions.
Reduced MIP has 2505 rows, 2975 columns, and 7735 nonzeros.
Reduced MIP has 1195 binaries, 0 generals, 0 SOSs, and 0 indicators.
Presolve time = 0.01 sec. (6.66 ticks)
Probing fixed 0 vars, tightened 2401 bounds.
Probing time = 0.01 sec. (6.41 ticks)
Clique table members: 190.
MIP emphasis: optimality.
MIP search method: dynamic search.
Parallel mode: deterministic, using up to 8 threads.
Root relaxation solution time = 0.01 sec. (9.71 ticks)

        Nodes                                         Cuts/
   Node  Left     Objective  IInf  Best Integer    Best Bound    ItCnt     Gap

      0     0   348385.3466   472                 348385.3466      882         
      0     0   580720.5063   453                   Cuts: 726     1872         
      0     0   819575.4990   708                   Cuts: 726     2785         
*     0+    0                       1.01740e+07   819575.4990            91.94%
*     0+    0                      7973370.0000   819575.4990            89.72%
      0     0   939438.7408   691  7973370.0000     Cuts: 726     3478   88.22%
      0     0  1009835.2082   757  7973370.0000     Cuts: 620     4088   87.33%
      0     0  1056132.6352   796  7973370.0000     Cuts: 552     4621   86.75%
Detecting symmetries...
*     0+    0                      1949098.0000  1056132.6352            45.81%
      0     0  1087387.7963   799  1949098.0000     Cuts: 432     5019   44.21%
*     0+    0                      1940615.0000  1087387.7963            43.97%
      0     0  1109919.4566   824  1940615.0000     Cuts: 394     5413   42.81%
      0     0  1124635.1017   843  1940615.0000     Cuts: 355     5771   42.05%
      0     0  1136939.4741   852  1940615.0000     Cuts: 341     6070   41.41%
      0     0  1142635.5402   855  1940615.0000     Cuts: 243     6343   41.12%
      0     0  1148761.5040   843  1940615.0000     Cuts: 222     6579   40.80%
      0     0  1152814.1743   854  1940615.0000     Cuts: 146     6773   40.60%
      0     0  1156504.3511   864  1940615.0000     Cuts: 163     6962   40.41%
      0     0  1158853.6102   854  1940615.0000     Cuts: 123     7113   40.28%
      0     0  1160661.4573   870  1940615.0000     Cuts: 103     7250   40.19%
      0     0  1162205.9392   862  1940615.0000     Cuts: 126     7397   40.11%
      0     0  1163507.4737   877  1940615.0000     Cuts: 128     7512   40.04%
      0     0  1165045.9705   850  1940615.0000      Cuts: 71     7602   39.97%
      0     0  1166472.5070   875  1940615.0000      Cuts: 91     7725   39.89%
      0     0  1167472.4521   863  1940615.0000      Cuts: 74     7848   39.84%
      0     0  1167763.2841   865  1940615.0000      Cuts: 70     7904   39.83%
      0     0  1168234.2559   874  1940615.0000      Cuts: 39     7972   39.80%
      0     0  1168503.8835   869  1940615.0000      Cuts: 61     8041   39.79%
      0     0  1168754.3580   871  1940615.0000      Cuts: 40     8124   39.77%
      0     0  1169153.4360   870  1940615.0000      Cuts: 43     8185   39.75%
      0     0  1169520.8758   877  1940615.0000      Cuts: 32     8263   39.73%
      0     0  1169884.9860   868  1940615.0000      Cuts: 38     8340   39.72%
      0     0  1170523.0188   875  1940615.0000      Cuts: 62     8459   39.68%
      0     0  1170813.2760   878  1940615.0000      Cuts: 68     8556   39.67%
Detecting symmetries...
      0     2  1170813.2760   878  1940615.0000  1170813.2760     8556   39.67%
Elapsed time = 2.99 sec. (5221.91 ticks, tree = 0.02 MB, solutions = 4)
     27    19  1178374.9912   826  1940615.0000  1172163.6163    10610   39.60%
     84    55  1184309.9320   819  1940615.0000  1172163.6163    15481   39.60%
    122   109  1193622.5897   776  1940615.0000  1172163.6163    20835   39.60%
    164   137  1201822.3847   773  1940615.0000  1172163.6163    22852   39.60%
    235   201  1192747.5984   776  1940615.0000  1172163.6163    28267   39.60%
    292   253  1195563.9589   757  1940615.0000  1172163.6163    32821   39.60%
    394   324  1237154.8079   606  1940615.0000  1172163.6163    37669   39.60%
    471   421  1255724.9475   590  1940615.0000  1172163.6163    44160   39.60%
    552   471  1192197.2407   758  1940615.0000  1172163.6163    48114   39.60%
    869   726  1248877.9794   583  1940615.0000  1172163.6163    62035   39.60%
Elapsed time = 5.01 sec. (8375.16 ticks, tree = 2.44 MB, solutions = 4)
   1565  1285  1249584.1541   664  1940615.0000  1172163.6163    91427   39.60%

Performing restart 1

Repeating presolve.
Tried aggregator 1 time.
MIP Presolve modified 1212 coefficients.
Reduced MIP has 2505 rows, 2975 columns, and 7735 nonzeros.
Reduced MIP has 1195 binaries, 0 generals, 0 SOSs, and 0 indicators.
Presolve time = 0.00 sec. (3.78 ticks)
Tried aggregator 1 time.
MIP Presolve modified 1012 coefficients.
Reduced MIP has 2505 rows, 2975 columns, and 7735 nonzeros.
Reduced MIP has 1195 binaries, 0 generals, 0 SOSs, and 0 indicators.
Presolve time = 0.00 sec. (5.12 ticks)
Represolve time = 0.02 sec. (24.38 ticks)

GUB cover cuts applied:  0
Cover cuts applied:  10
Flow cuts applied:  876
Mixed integer rounding cuts applied:  525
Flow path cuts applied:  101
Multi commodity flow cuts applied:  73
Gomory fractional cuts applied:  3
Disjunctive cuts applied:  0
Cone linearizations applied:  0

Root node processing (before b&c):
  Real time             =    2.98 sec. (5214.07 ticks)
Parallel b&c, 8 threads:
  Real time             =    3.16 sec. (4793.12 ticks)
  Sync time (average)   =    0.39 sec.
  Wait time (average)   =    0.00 sec.
                          ------------
Total (root+branch&cut) =    6.14 sec. (10007.19 ticks)
Gap: 39.6%
Upper bound: 1.94062e+06
Lower bound: 1.17216e+06
End of CPLEX run. Time: 6.14459 seconds
